WARNING: for repeatability, setting FPU to use double precision
============================[ Problem Statistics ]=============================
|                                                                             |
|  Number of variables:           100                                         |
|  Number of clauses:             449                                         |
|  Parse time:                   0.00 s                                       |
|  Eliminated clauses:           0.00 Mb                                      |
|  Simplification time:          0.00 s                                       |
|                                                                             |
============================[ Search Statistics ]==============================
| Conflicts |          ORIGINAL         |          LEARNT          | Progress |
|           |    Vars  Clauses Literals |    Limit  Clauses Lit/Cl |          |
===============================================================================
|       100 |      99      448     1349 |      164      100      6 |  0.020 % |
|       250 |      97      437     1316 |      180      101      5 |  2.020 % |
===============================================================================
restarts              : 3
conflicts             : 299            (257315 /sec)
decisions             : 367            (0.00 % random) (315835 /sec)
propagations          : 6908           (5944923 /sec)
conflict literals     : 1544           (26.55 % deleted)
Memory used           : 13.00 MB
CPU time              : 0.001162 s

SATISFIABLE
